NAME: ACTUAL_TOURS/amz0062
TYPE: TOUR
COMMENT: RouteID_06b5f445-1255-4014-9d43-b5d766b484b3
DIMENSION: 72
TOUR_SECTION
68
45
35
61
64
17
1
24
33
60
71
69
30
34
39
55
42
67
28
53
15
13
3
48
29
70
26
58
40
27
4
47
46
32
19
56
22
72
11
16
7
43
49
25
9
31
5
65
10
12
59
23
37
6
57
2
38
51
52
18
41
62
14
44
54
36
20
66
50
21
8
63
-1
EOF
